100 10
532 411
750 590
647 409
681 381
663 580
270 438
575 665
483 303
332 558
247 446
819 531
388 540
917 400
232 217
684 852
810 875
549 431
415 718
401 646
601 502
433 666
856 624
127 329
397 462
439 461
337 517
864 548
482 672
486 120
468 450
648 327
841 95
218 762
541 544
595 898
491 272
684 543
533 451
405 298
549 546
501 500
918 604
296 437
251 783
255 939
763 554
342 803
853 581
288 456
378 486
432 559
355 328
664 737
819 860
152 229
818 489
458 701
682 355
248 632
724 579
425 443
851 590
617 537
505 454
718 716
335 547
720 675
534 688
360 637
662 561
677 451
222 378
693 729
621 784
682 164
640 57
782 316
268 488
822 470
507 396
407 576
923 808
534 75
175 223
264 638
667 301
824 583
631 614
346 680
565 448
568 386
879 271
581 487
871 722
845 832
156 299
565 172
807 393
447 362
506 178
